unsat
(:elim-unconstrained  2
 :max-memory          18.62
 :memory              18.42
 :nlsat-arith-var     2
 :nlsat-atoms         9
 :nlsat-bool-var      3
 :nlsat-clauses       5
 :nlsat-conflicts     4
 :nlsat-propagations  13
 :nlsat-stages        4
 :num-allocs          84190
 :rlimit-count        7824
 :solve-eqs-elim-vars 1
 :solve-eqs-steps     1
 :time                0.01
 :total-time          0.02)
